9418.83,64.57,80.1
8909.21,68.27,84.69
10055.72,60.48,75.03
9260.09,65.68,81.48
9254.88,65.72,81.52
9261.43,65.67,81.47
9674.01,62.87,77.99
8772.49,69.33,86.01
9141.62,66.53,82.53
9305.66,65.36,81.08
9097.09,66.86,82.94
9461.32,64.28,79.74
10176.68,59.77,74.14
8947.23,67.98,84.33
9468.64,64.23,79.68
9187.49,66.2,82.12
9564.76,63.59,78.88
10389.81,58.54,72.62
9743.59,62.42,77.43
9643.46,63.07,78.24
